NAME : XML100_3351_20
DIMENSION : 101
NB_CLUSTERS : 6
CLUSTERING_ALG : DBSCAN
CLUSTERING_PARAMS : eps(115), minSamples(3)
CLUSTERS
1 0
2 1 11 35 46 72 99
3 2 4 5 6 7 9 10 18 21 22 23 24 36 37 38 40 44 48 49 52 55 62 66 70 82 83 84 85 86 89 90 96 97 100
4 3 12 15 17 26 27 31 32 33 34 42 43 50 53 54 58 63 65 68 69 71 74 75 76 77 80 81 88 91 95 98
5 8 13 14 16 19 20 25 28 30 39 41 45 47 51 56 57 60 61 64 67 73 78 79 87 92 94
6 29 59 93
EOF